p cnf 56 200
-5 3 0
-5 -4 0
-3 4 5 0
-6 2 0
-6 -5 0
-2 5 6 0
-6 -7 0
6 -7 0
1 -7 -8 0
-1 7 -8 0
1 7 8 0
-1 -7 8 0
-10 9 0
-10 -5 0
-9 5 10 0
-11 -3 0
-11 1 0
3 -1 11 0
-12 10 0
-12 -11 0
-10 11 12 0
-13 14 0
13 14 0
14 -5 -15 0
-14 5 -15 0
14 5 15 0
-14 -5 15 0
16 12 0
16 15 0
-12 -15 -16 0
2 -17 -18 0
-2 17 -18 0
2 17 18 0
-2 -17 18 0
19 18 0
19 -6 0
-18 6 -19 0
-20 -16 0
-20 19 0
16 -19 20 0
-8 -20 -21 0
8 20 -21 0
-8 20 21 0
8 -20 21 0
22 -9 0
22 -2 0
9 2 -22 0
-24 -6 0
-24 -23 0
6 23 24 0
27 26 0
27 -4 0
-26 4 -27 0
-28 -27 0
-28 -4 0
27 4 28 0
-29 -25 0
-29 -28 0
25 28 29 0
24 29 -30 0
-24 -29 -30 0
24 -29 30 0
-24 29 30 0
1 -28 -31 0
-1 28 -31 0
1 28 31 0
-1 -28 31 0
32 17 0
32 -10 0
-17 10 -32 0
33 32 0
33 -10 0
-32 10 -33 0
-31 33 -34 0
31 -33 -34 0
-31 -33 34 0
31 33 34 0
13 -14 -35 0
-13 14 -35 0
13 14 35 0
-13 -14 35 0
36 -34 0
36 35 0
34 -35 -36 0
30 -36 -37 0
-30 36 -37 0
30 36 37 0
-30 -36 37 0
22 37 -38 0
-22 -37 -38 0
22 -37 38 0
-22 37 38 0
-39 21 0
-39 38 0
-21 -38 39 0
-40 -32 0
-40 -13 0
32 13 40 0
-41 -4 0
-41 -25 0
4 25 41 0
-7 4 -42 0
7 -4 -42 0
-7 -4 42 0
7 4 42 0
43 9 0
43 -6 0
-9 6 -43 0
-44 6 0
-44 -43 0
-6 43 44 0
-42 -44 -45 0
42 44 -45 0
-42 44 45 0
42 -44 45 0
46 41 0
46 45 0
-41 -45 -46 0
47 40 0
47 46 0
-40 -46 -47 0
-9 14 -48 0
9 -14 -48 0
-9 -14 48 0
9 14 48 0
3 6 -49 0
-3 -6 -49 0
3 -6 49 0
-3 6 49 0
50 -48 0
50 49 0
48 -49 -50 0
-51 -9 0
-51 -9 0
9 51 0
52 50 0
52 51 0
-50 -51 -52 0
53 -47 0
53 52 0
47 -52 -53 0
-5 -31 -54 0
5 31 -54 0
-5 31 54 0
5 -31 54 0
-53 54 -55 0
53 -54 -55 0
-53 -54 55 0
53 54 55 0
-39 55 -56 0
39 -55 -56 0
-39 -55 56 0
39 55 56 0
37 -49 19 0
37 -55 52 -54 0
-8 -33 -50 40 0
-40 39 -44 0
-45 30 -24 43 0
15 0
-23 -17 -20 -13 -25 14 0
30 56 -44 0
-46 -28 27 -21 -37 32 0
55 -8 37 0
41 6 0
3 18 -48 0
19 17 44 1 6 -27 0
34 -36 7 -23 47 35 0
37 17 -20 -44 3 0
-11 -6 47 0
36 -28 -14 0
-9 -55 56 -30 -27 0
2 -18 0
-4 5 0
35 -38 0
52 -22 0
-30 -22 17 0
-27 -50 -55 -42 0
12 17 10 0
45 27 34 -23 -21 0
-24 9 -28 51 -6 0
-35 23 49 0
54 -41 8 36 4 -42 0
-56 -38 15 -20 0
-48 47 -56 0
-13 -9 28 -48 0
-4 -38 -5 -34 -41 31 0
16 -51 -29 12 0
-19 -42 -44 -28 35 0
18 27 9 -17 -32 0
29 -31 0
49 55 15 -56 -17 34 0
10 23 7 51 15 34 0
39 -4 22 0
-21 -1 39 43 -31 0
37 27 -21 22 0
-15 -13 -26 -22 0
13 53 -27 9 -28 0
-26 -8 40 7 -55 49 0
22 9 56 0
56 0
